95 63 33 31 29 27 30 28 26 34 50 32 89 48 25 77 58 
82 99 57 22 20 49 24 
5 45 2 6 7 8 46 3 1 4 100 70 
65 52 86 87 9 53 90 
47 14 12 16 15 11 10 13 17 
83 59 75 97 74 66 
81 61 68 
72 36 39 42 44 41 38 40 43 35 37 54 
64 19 23 21 18 76 51 85 84 56 91 80 
92 62 67 71 94 96 93 
69 98 88 79 73 78 60 55 
